44
75
52	2
51	2
50	1
49	1
48	3
47	1
46	4
45	2
44	2
43	2
42	4
41	2
40	1
39	3
38	1
37	1
36	4
35	5
34	2
33	3
32	2
31	4
30	5
29	1
28	1
27	2
26	3
25	4
24	2
23	3
22	3
21	2
20	2
19	1
18	1
17	3
16	2
13	2
12	3
11	2
10	2
9	1
8	1
7	2
